g3 0 1 0	# problem d4n12R6R7d005d1
 12 12 1 0 6	# vars, constraints, objectives, ranges, eqns
 4 1	# nonlinear constraints, objectives
 0 0	# network constraints: nonlinear, linear
 12 12 12	# nonlinear vars in constraints, objectives, both
 0 0 0 1	# linear network variables; functions; arith, flags
 0 0 0 0 0	# discrete variables: binary, integer, nonlinear (b,c,o)
 144 12	# nonzeros in Jacobian, gradients
 0 0	# max name lengths: constraints, variables
 0 0 0 0 0	# common exprs: b,c,o,c1,o1
b
0 0.68 2.81
0 0.94 2.49
0 0.09 2.78
0 0.15 2.39
0 0.2 2.76
0 0.07 2.86
0 0.87 2.45
0 0.12 2.5
0 0.04 2.22
0 0.26 2.74
0 0.08 2.54
0 0.88 2.71
r
2 87.074
2 321.53
2 1581.89
2 125.297
4 70.583
4 60.052
4 69.845
4 82.412
4 93.626
4 65.3
2 71.582
2 32.172
C0
o54
5
o2
v3
v4
o16
o2
o2
n9.84
v5
v6
o2
o2
n8.73
v6
v11
o2
o2
n9.78
v8
v8
o2
o2
n8.04
v8
v11
C1
o54
24
o2
o2
n1.74
v3
v4
o2
o2
n3.42
v5
v6
o2
o2
n8.05
v6
v11
o2
o2
n0.27
v8
v8
o2
o2
n4.23
v8
v11
o2
o2
o2
n3.74
v0
v3
v4
o16
o2
o2
o2
n2.14
v0
v4
v5
o2
o2
o2
n3.58
v0
v5
v5
o16
o2
o2
o2
n4.95
v0
v7
v7
o2
o2
o2
n6.83
v0
v8
v8
o2
o2
o2
n3.47
v0
v9
v9
o2
o2
o2
n7.6
v1
v4
v7
o2
o2
o2
n6.58
v1
v6
v6
o2
o2
o2
n3.56
v1
v9
v9
o2
o2
o2
n2.35
v2
v2
v2
o2
o2
o2
n8.27
v2
v2
v5
o2
o2
o2
n1.32
v3
v5
v5
o2
o2
o2
n3.34
v3
v7
v8
o2
o2
o2
n8.58
v3
v7
v9
o2
o2
o2
n9.54
v4
v5
v10
o2
o2
o2
n6.16
v5
v9
v11
o2
o2
o2
n0.88
v6
v6
v7
o2
o2
o2
n2.3
v8
v9
v9
o2
o2
o2
n0.78
v9
v11
v11
C2
o54
90
o2
o2
n8.36
v3
v4
o2
o2
n2.81
v5
v6
o2
o2
n6.89
v6
v11
o2
o2
n0.79
v8
v8
o2
o2
n5.95
v8
v11
o2
o2
o2
n6.68
v0
v3
v4
o16
o2
o2
o2
n6.23
v0
v4
v5
o16
o2
o2
o2
n6.19
v0
v5
v5
o16
o2
o2
o2
n3.82
v0
v7
v7
o2
o2
o2
n4.22
v0
v8
v8
o2
o2
o2
n4.06
v0
v9
v9
o2
o2
o2
n2.38
v1
v4
v7
o2
o2
o2
n2.71
v1
v6
v6
o2
o2
o2
n1.56
v1
v9
v9
o2
o2
o2
n0.76
v2
v2
v2
o2
o2
o2
n8.32
v2
v2
v5
o2
o2
o2
n4.68
v3
v5
v5
o2
o2
o2
n9.24
v3
v7
v8
o2
o2
o2
n8.55
v3
v7
v9
o2
o2
o2
n2.46
v4
v5
v10
o16
o2
o2
o2
n9.57
v5
v9
v11
o2
o2
o2
n0.16
v6
v6
v7
o2
o2
o2
n3.66
v8
v9
v9
o2
o2
o2
n1.35
v9
v11
v11
o2
o2
o2
o2
n2.66
v0
v0
v1
v5
o2
o2
o2
o2
n8.85
v0
v0
v5
v8
o2
o2
o2
o2
n9.57
v0
v1
v4
v11
o2
o2
o2
o2
n9.53
v0
v2
v3
v5
o2
o2
o2
o2
n3.64
v0
v2
v4
v8
o2
o2
o2
o2
n2.01
v0
v3
v6
v7
o2
o2
o2
o2
n1.6
v0
v3
v9
v11
o2
o2
o2
o2
n0.67
v0
v3
v11
v11
o2
o2
o2
o2
n6.81
v0
v4
v4
v9
o2
o2
o2
o2
n0.24
v0
v4
v6
v8
o2
o2
o2
o2
n2.75
v0
v5
v8
v10
o2
o2
o2
o2
n9.93
v0
v5
v9
v11
o16
o2
o2
o2
o2
n2.5
v0
v6
v9
v11
o16
o2
o2
o2
o2
n1.07
v0
v8
v10
v10
o2
o2
o2
o2
n0.75
v0
v9
v9
v10
o2
o2
o2
o2
n7.61
v1
v1
v2
v10
o2
o2
o2
o2
n9.81
v1
v1
v3
v7
o2
o2
o2
o2
n3.18
v1
v1
v3
v8
o2
o2
o2
o2
n6.39
v1
v1
v8
v11
o2
o2
o2
o2
n4.06
v1
v2
v3
v3
o2
o2
o2
o2
n0.5
v1
v2
v4
v8
o2
o2
o2
o2
n1.95
v1
v2
v5
v11
o2
o2
o2
o2
n3.1
v1
v2
v6
v8
o2
o2
o2
o2
n5.74
v1
v2
v10
v10
o2
o2
o2
o2
n4.21
v1
v3
v3
v10
o2
o2
o2
o2
n6.18
v1
v3
v4
v4
o2
o2
o2
o2
n7.75
v1
v3
v10
v10
o2
o2
o2
o2
n2.67
v1
v5
v7
v9
o2
o2
o2
o2
n4.94
v1
v5
v8
v10
o2
o2
o2
o2
n6.12
v2
v2
v4
v8
o2
o2
o2
o2
n2.71
v2
v2
v6
v6
o2
o2
o2
o2
n7.03
v2
v2
v6
v8
o2
o2
o2
o2
n8.67
v2
v2
v9
v10
o2
o2
o2
o2
n2.75
v2
v4
v7
v11
o2
o2
o2
o2
n9.22
v2
v5
v8
v10
o2
o2
o2
o2
n3.08
v2
v5
v10
v10
o2
o2
o2
o2
n2.38
v2
v7
v8
v10
o2
o2
o2
o2
n8.23
v3
v3
v4
v10
o2
o2
o2
o2
n1.9
v3
v4
v4
v4
o2
o2
o2
o2
n8.22
v3
v4
v6
v9
o2
o2
o2
o2
n4.2
v3
v5
v5
v9
o2
o2
o2
o2
n7.71
v3
v5
v7
v9
o2
o2
o2
o2
n4.64
v3
v5
v8
v9
o2
o2
o2
o2
n5.45
v3
v9
v10
v11
o2
o2
o2
o2
n4.87
v4
v4
v4
v7
o2
o2
o2
o2
n2.31
v4
v5
v5
v5
o2
o2
o2
o2
n7.59
v4
v5
v9
v11
o2
o2
o2
o2
n6.96
v4
v7
v10
v11
o2
o2
o2
o2
n0.44
v4
v11
v11
v11
o2
o2
o2
o2
n3.38
v5
v5
v7
v7
o2
o2
o2
o2
n5.53
v5
v5
v9
v10
o2
o2
o2
o2
n9.03
v5
v6
v6
v8
o16
o2
o2
o2
o2
n6.19
v5
v6
v10
v11
o2
o2
o2
o2
n8.02
v5
v8
v9
v11
o2
o2
o2
o2
n7.45
v6
v6
v6
v8
o2
o2
o2
o2
n8.14
v6
v6
v7
v8
o2
o2
o2
o2
n1.87
v6
v6
v8
v9
o16
o2
o2
o2
o2
n5.84
v6
v7
v7
v8
o2
o2
o2
o2
n7.33
v6
v7
v8
v8
o2
o2
o2
o2
n8.38
v6
v7
v10
v10
o2
o2
o2
o2
n8.12
v6
v8
v8
v8
o2
o2
o2
o2
n6.95
v7
v8
v11
v11
o2
o2
o2
o2
n6.23
v8
v9
v9
v11
o2
o2
o2
o2
n0.07
v8
v9
v10
v10
o2
o2
o2
o2
n4.13
v8
v9
v11
v11
o2
o2
o2
o2
n1.21
v9
v9
v9
v10
C3
o54
5
o2
o2
n9.73
v3
v4
o2
o2
n1.57
v5
v6
o2
o2
n6.86
v6
v11
o2
o2
n2.41
v8
v8
o2
o2
n2.3
v8
v11
C4
n0
C5
n0
C6
n0
C7
n0
C8
n0
C9
n0
C10
n0
C11
n0
O0 0
o54
90
o2
o2
n2.39
v3
v4
o2
o2
n6.14
v5
v6
o2
o2
n5.41
v6
v11
o2
o2
n3.1
v8
v8
o2
o2
n5.86
v8
v11
o2
o2
o2
n2.41
v0
v3
v4
o2
o2
o2
n2.32
v0
v4
v5
o2
o2
o2
n5.7
v0
v5
v5
o2
o2
o2
n0.68
v0
v7
v7
o2
o2
o2
n7.12
v0
v8
v8
o16
o2
o2
o2
n7.09
v0
v9
v9
o2
o2
o2
n1.83
v1
v4
v7
o2
o2
o2
n7.17
v1
v6
v6
o16
o2
o2
o2
n1.7
v1
v9
v9
o2
o2
o2
n9.41
v2
v2
v2
o16
o2
o2
o2
n8.4
v2
v2
v5
o2
o2
o2
n5.55
v3
v5
v5
o2
o2
o2
n9.21
v3
v7
v8
o2
o2
o2
n5.74
v3
v7
v9
o2
o2
o2
n5.98
v4
v5
v10
o2
o2
o2
n1.3
v5
v9
v11
o2
o2
o2
n2.42
v6
v6
v7
o2
o2
o2
n2.85
v8
v9
v9
o2
o2
o2
n0.07
v9
v11
v11
o2
o2
o2
o2
n6.75
v0
v0
v1
v5
o2
o2
o2
o2
n8.3
v0
v0
v5
v8
o2
o2
o2
o2
n7.47
v0
v1
v4
v11
o2
o2
o2
o2
n8.62
v0
v2
v3
v5
o2
o2
o2
o2
n8.92
v0
v2
v4
v8
o2
o2
o2
o2
n8.63
v0
v3
v6
v7
o16
o2
o2
o2
o2
n2.33
v0
v3
v9
v11
o2
o2
o2
o2
n5.85
v0
v3
v11
v11
o2
o2
o2
o2
n3.66
v0
v4
v4
v9
o2
o2
o2
o2
n6.93
v0
v4
v6
v8
o2
o2
o2
o2
n8.33
v0
v5
v8
v10
o2
o2
o2
o2
n2.28
v0
v5
v9
v11
o2
o2
o2
o2
n5.95
v0
v6
v9
v11
o2
o2
o2
o2
n1.66
v0
v8
v10
v10
o2
o2
o2
o2
n3.07
v0
v9
v9
v10
o2
o2
o2
o2
n0.99
v1
v1
v2
v10
o2
o2
o2
o2
n6.54
v1
v1
v3
v7
o2
o2
o2
o2
n5.57
v1
v1
v3
v8
o2
o2
o2
o2
n5.54
v1
v1
v8
v11
o2
o2
o2
o2
n0.21
v1
v2
v3
v3
o2
o2
o2
o2
n4.8
v1
v2
v4
v8
o2
o2
o2
o2
n1.41
v1
v2
v5
v11
o2
o2
o2
o2
n7.12
v1
v2
v6
v8
o2
o2
o2
o2
n2.06
v1
v2
v10
v10
o16
o2
o2
o2
o2
n7.79
v1
v3
v3
v10
o2
o2
o2
o2
n3.83
v1
v3
v4
v4
o2
o2
o2
o2
n8.79
v1
v3
v10
v10
o2
o2
o2
o2
n7.64
v1
v5
v7
v9
o2
o2
o2
o2
n5.64
v1
v5
v8
v10
o2
o2
o2
o2
n7.54
v2
v2
v4
v8
o2
o2
o2
o2
n4.61
v2
v2
v6
v6
o16
o2
o2
o2
o2
n8.26
v2
v2
v6
v8
o2
o2
o2
o2
n3.16
v2
v2
v9
v10
o2
o2
o2
o2
n1.73
v2
v4
v7
v11
o2
o2
o2
o2
n1.45
v2
v5
v8
v10
o2
o2
o2
o2
n3.02
v2
v5
v10
v10
o2
o2
o2
o2
n7.65
v2
v7
v8
v10
o2
o2
o2
o2
n0.75
v3
v3
v4
v10
o2
o2
o2
o2
n4.96
v3
v4
v4
v4
o2
o2
o2
o2
n2.6
v3
v4
v6
v9
o2
o2
o2
o2
n3.05
v3
v5
v5
v9
o2
o2
o2
o2
n0.97
v3
v5
v7
v9
o2
o2
o2
o2
n1.82
v3
v5
v8
v9
o2
o2
o2
o2
n9.27
v3
v9
v10
v11
o2
o2
o2
o2
n0.25
v4
v4
v4
v7
o2
o2
o2
o2
n4.02
v4
v5
v5
v5
o2
o2
o2
o2
n8.18
v4
v5
v9
v11
o2
o2
o2
o2
n3.21
v4
v7
v10
v11
o16
o2
o2
o2
o2
n3.74
v4
v11
v11
v11
o2
o2
o2
o2
n6.14
v5
v5
v7
v7
o2
o2
o2
o2
n4.41
v5
v5
v9
v10
o2
o2
o2
o2
n5.04
v5
v6
v6
v8
o2
o2
o2
o2
n4.39
v5
v6
v10
v11
o2
o2
o2
o2
n3.88
v5
v8
v9
v11
o2
o2
o2
o2
n6.08
v6
v6
v6
v8
o2
o2
o2
o2
n4.58
v6
v6
v7
v8
o2
o2
o2
o2
n8.63
v6
v6
v8
v9
o2
o2
o2
o2
n6
v6
v7
v7
v8
o2
o2
o2
o2
n1.17
v6
v7
v8
v8
o2
o2
o2
o2
n5.95
v6
v7
v10
v10
o2
o2
o2
o2
n3.74
v6
v8
v8
v8
o2
o2
o2
o2
n1.63
v7
v8
v11
v11
o16
o2
o2
o2
o2
n3.55
v8
v9
v9
v11
o2
o2
o2
o2
n8.78
v8
v9
v10
v10
o2
o2
o2
o2
n9.5
v8
v9
v11
v11
o2
o2
o2
o2
n4.71
v9
v9
v9
v10
k11
12
24
36
48
60
72
84
96
108
120
132
J0 12
0 4.72
1 4.78
2 6.38
3 8.54
4 -8.81
5 4.26
6 4.26
7 6.9
8 1.74
9 7.22
10 -3.31
11 0.06
J1 12
0 -6.51
1 1.94
2 6.56
3 -5.66
4 6.26
5 8.65
6 1.75
7 6.64
8 0.46
9 8.06
10 0.84
11 3.63
J2 12
0 9.26
1 4.26
2 -6.03
3 -5.42
4 7.71
5 4.09
6 8.01
7 0.79
8 6.43
9 4.08
10 6.75
11 9.3
J3 12
0 2.31
1 4.34
2 6.57
3 2.71
4 2.66
5 -8.01
6 6.3
7 8.32
8 0.6
9 6.87
10 9.8
11 7.4
J4 12
0 -2.09
1 5.41
2 -3.42
3 5.93
4 -3.18
5 9.26
6 6
7 7.52
8 2.99
9 4.11
10 9.2
11 6.72
J5 12
0 7.76
1 7.59
2 0.85
3 9.15
4 5.19
5 1.73
6 4.08
7 5.81
8 7.45
9 2.08
10 1.06
11 -9.4
J6 12
0 -8.76
1 6.79
2 4.78
3 7.54
4 5.31
5 9.93
6 0.04
7 6.17
8 4
9 0.79
10 9.76
11 4.46
J7 12
0 9.47
1 2.82
2 3.65
3 7.68
4 7.01
5 2.59
6 3.27
7 8.75
8 9.94
9 4.73
10 4.53
11 -5.16
J8 12
0 8.32
1 2.26
2 -2.21
3 4.08
4 7.77
5 9.2
6 2.83
7 5.14
8 2.42
9 9.04
10 5.55
11 7.38
J9 12
0 5.57
1 2.02
2 0.96
3 7.49
4 9.85
5 -3.82
6 3.68
7 8.93
8 0.52
9 3.88
10 5.39
11 0.54
J10 12
0 0.13
1 -7.82
2 8.53
3 7.75
4 7.43
5 2.52
6 5.36
7 9.38
8 9.83
9 5.58
10 3.98
11 1.18
J11 12
0 5.64
1 -9.65
2 6.65
3 8.79
4 -1.99
5 0.81
6 0.16
7 1.87
8 2.51
9 -6.84
10 8.3
11 7.67
G0 12
0 -7.88
1 0.79
2 8.89
3 9.67
4 9.31
5 5.79
6 3.29
7 -4.96
8 0.74
9 6.52
10 6.24
11 5.69
